p cnf 412 698
-30 29 66 76 0
-30 29 66 -76 0
28 33 -13 77 0
28 33 -13 -77 0
-48 22 -45 78 0
-48 22 -45 -78 0
-75 -15 19 79 0
-75 -15 19 -79 0
-49 68 5 80 0
-49 68 5 -80 0
-55 35 -32 81 0
-55 35 -32 -81 0
-48 71 -60 82 0
-48 71 -60 -82 0
25 52 24 83 0
25 52 24 -83 0
11 -25 -27 84 0
11 -25 -27 -84 0
57 -55 -62 85 0
57 -55 -62 -85 0
-3 -19 -22 86 0
-3 -19 -22 -86 0
21 -13 56 87 0
21 -13 56 -87 0
59 15 -62 88 0
59 15 -62 -88 0
-15 -35 22 89 0
-15 -35 22 -89 0
23 -25 -63 90 0
23 -25 -63 -90 0
73 52 67 91 0
73 52 67 -91 0
-4 -46 44 92 0
-4 -46 44 -92 0
-70 -35 -48 93 0
-70 -35 -48 -93 0
-52 57 32 94 0
-52 57 32 -94 0
-7 -45 -26 95 0
-7 -45 -26 -95 0
43 -52 51 96 0
43 -52 51 -96 0
65 -74 46 97 0
65 -74 46 -97 0
-66 52 56 98 0
-66 52 56 -98 0
-36 10 4 99 0
-36 10 4 -99 0
68 14 -71 100 0
68 14 -71 -100 0
-17 51 26 101 0
-17 51 26 -101 0
-67 73 19 102 0
-67 73 19 -102 0
-59 -22 54 103 0
-59 -22 54 -103 0
63 21 66 104 0
63 21 66 -104 0
5 -42 -13 105 0
5 -42 -13 -105 0
39 26 13 106 0
39 26 13 -106 0
-22 -32 -52 107 0
-22 -32 -52 -107 0
44 -10 -32 108 0
44 -10 -32 -108 0
-70 15 64 109 0
-70 15 64 -109 0
3 -32 58 110 0
3 -32 58 -110 0
3 -17 58 111 0
3 -17 58 -111 0
48 -68 49 112 0
48 -68 49 -112 0
2 21 -46 113 0
2 21 -46 -113 0
-1 23 54 114 0
-1 23 54 -114 0
-5 12 38 115 0
-5 12 38 -115 0
21 -31 34 116 0
21 -31 34 -116 0
-20 -18 -73 117 0
-20 -18 -73 -117 0
-30 -42 70 118 0
-30 -42 70 -118 0
39 -1 -46 119 0
39 -1 -46 -119 0
-24 -70 66 120 0
-24 -70 66 -120 0
3 2 49 121 0
3 2 49 -121 0
41 25 36 122 0
41 25 36 -122 0
12 -47 -43 123 0
12 -47 -43 -123 0
-30 10 44 124 0
-30 10 44 -124 0
-54 51 27 125 0
-54 51 27 -125 0
62 40 10 126 0
62 40 10 -126 0
54 41 -39 127 0
54 41 -39 -127 0
15 -28 58 128 0
15 -28 58 -128 0
-51 8 69 129 0
-51 8 69 -129 0
-29 -10 -53 130 0
-29 -10 -53 -130 0
60 12 70 131 0
60 12 70 -131 0
72 -54 48 132 0
72 -54 48 -132 0
26 72 -56 133 0
26 72 -56 -133 0
34 -68 61 134 0
34 -68 61 -134 0
53 -72 29 135 0
53 -72 29 -135 0
15 -53 13 136 0
15 -53 13 -136 0
-19 69 -4 137 0
-19 69 -4 -137 0
-20 29 -56 138 0
-20 29 -56 -138 0
-53 71 67 139 0
-53 71 67 -139 0
57 75 31 140 0
57 75 31 -140 0
12 -44 -2 141 0
12 -44 -2 -141 0
-49 -72 -67 142 0
-49 -72 -67 -142 0
37 7 -25 143 0
37 7 -25 -143 0
16 59 57 144 0
16 59 57 -144 0
-42 4 3 145 0
-42 4 3 -145 0
22 -25 -1 146 0
22 -25 -1 -146 0
22 -23 -51 147 0
22 -23 -51 -147 0
8 -36 -45 148 0
8 -36 -45 -148 0
-18 -68 -35 149 0
-18 -68 -35 -149 0
3 -41 -60 150 0
3 -41 -60 -150 0
-38 59 -23 151 0
-38 59 -23 -151 0
-17 -28 19 152 0
-17 -28 19 -152 0
-30 48 53 153 0
-30 48 53 -153 0
50 23 -10 154 0
50 23 -10 -154 0
25 63 -51 155 0
25 63 -51 -155 0
68 9 -72 156 0
68 9 -72 -156 0
-48 43 11 157 0
-48 43 11 -157 0
-69 -55 6 158 0
-69 -55 6 -158 0
-42 7 57 159 0
-42 7 57 -159 0
43 54 66 160 0
43 54 66 -160 0
-67 2 -25 161 0
-67 2 -25 -161 0
-55 -5 7 162 0
-55 -5 7 -162 0
19 37 -69 163 0
19 37 -69 -163 0
-58 -71 60 164 0
-58 -71 60 -164 0
43 15 67 165 0
43 15 67 -165 0
-49 23 2 166 0
-49 23 2 -166 0
-37 -65 38 167 0
-37 -65 38 -167 0
-57 73 -42 168 0
-57 73 -42 -168 0
28 -4 66 169 0
28 -4 66 -169 0
26 -11 51 170 0
26 -11 51 -170 0
18 -31 -20 171 0
18 -31 -20 -171 0
53 31 16 172 0
53 31 16 -172 0
-3 8 -63 173 0
-3 8 -63 -173 0
6 33 48 174 0
6 33 48 -174 0
-44 -12 -61 175 0
-44 -12 -61 -175 0
5 73 -24 176 0
5 73 -24 -176 0
2 67 20 177 0
2 67 20 -177 0
-38 -15 26 178 0
-38 -15 26 -178 0
72 24 -56 179 0
72 24 -56 -179 0
-59 35 -50 180 0
-59 35 -50 -180 0
-51 13 -67 181 0
-51 13 -67 -181 0
1 -18 -29 182 0
1 -18 -29 -182 0
-68 7 35 183 0
-68 7 35 -183 0
8 -70 46 184 0
8 -70 46 -184 0
66 34 -1 185 0
66 34 -1 -185 0
-18 -67 -50 186 0
-18 -67 -50 -186 0
61 49 -68 187 0
61 49 -68 -187 0
57 -72 -55 188 0
57 -72 -55 -188 0
48 -63 -19 189 0
48 -63 -19 -189 0
9 5 48 190 0
9 5 48 -190 0
-30 -72 -73 191 0
-30 -72 -73 -191 0
-58 18 41 192 0
-58 18 41 -192 0
-54 -18 -69 193 0
-54 -18 -69 -193 0
-43 61 51 194 0
-43 61 51 -194 0
34 12 27 195 0
34 12 27 -195 0
29 -55 -28 196 0
29 -55 -28 -196 0
-74 35 15 197 0
-74 35 15 -197 0
-52 11 -53 198 0
-52 11 -53 -198 0
33 48 -36 199 0
33 48 -36 -199 0
-30 -66 -50 200 0
-30 -66 -50 -200 0
-12 -26 54 201 0
-12 -26 54 -201 0
-38 50 65 202 0
-38 50 65 -202 0
-12 65 33 203 0
-12 65 33 -203 0
-39 69 -10 204 0
-39 69 -10 -204 0
37 31 33 205 0
37 31 33 -205 0
-11 -24 55 206 0
-11 -24 55 -206 0
20 26 5 207 0
20 26 5 -207 0
-31 14 -8 208 0
-31 14 -8 -208 0
25 -41 36 209 0
25 -41 36 -209 0
2 68 -34 210 0
2 68 -34 -210 0
24 28 -42 211 0
24 28 -42 -211 0
-32 -42 3 212 0
-32 -42 3 -212 0
-72 -58 -27 213 0
-72 -58 -27 -213 0
-10 -26 -30 214 0
-10 -26 -30 -214 0
45 66 -58 215 0
45 66 -58 -215 0
67 -28 15 216 0
67 -28 15 -216 0
32 -72 -73 217 0
32 -72 -73 -217 0
54 35 25 218 0
54 35 25 -218 0
74 -28 34 219 0
74 -28 34 -219 0
19 -41 14 220 0
19 -41 14 -220 0
63 -37 45 221 0
63 -37 45 -221 0
33 -27 -6 222 0
33 -27 -6 -222 0
72 -39 3 223 0
72 -39 3 -223 0
-29 -43 -49 224 0
-29 -43 -49 -224 0
12 14 -11 225 0
12 14 -11 -225 0
43 2 17 226 0
43 2 17 -226 0
21 -36 39 227 0
21 -36 39 -227 0
-71 62 63 228 0
-71 62 63 -228 0
-20 36 -74 229 0
-20 36 -74 -229 0
-38 -35 7 230 0
-38 -35 7 -230 0
-28 24 -45 231 0
-28 24 -45 -231 0
61 -63 -21 232 0
61 -63 -21 -232 0
8 -39 -33 233 0
8 -39 -33 -233 0
25 6 -62 234 0
25 6 -62 -234 0
55 -64 62 235 0
55 -64 62 -235 0
54 -2 -31 236 0
54 -2 -31 -236 0
5 26 45 237 0
5 26 45 -237 0
71 -45 61 238 0
71 -45 61 -238 0
16 75 -37 239 0
16 75 -37 -239 0
-57 71 55 240 0
-57 71 55 -240 0
50 2 -30 241 0
50 2 -30 -241 0
62 -30 -21 242 0
62 -30 -21 -242 0
-53 51 28 243 0
-53 51 28 -243 0
69 19 3 244 0
69 19 3 -244 0
22 -1 15 245 0
22 -1 15 -245 0
-30 18 -39 246 0
-30 18 -39 -246 0
-54 -9 -18 247 0
-54 -9 -18 -247 0
57 -17 -48 248 0
57 -17 -48 -248 0
12 49 68 249 0
12 49 68 -249 0
-34 26 -14 250 0
-34 26 -14 -250 0
-11 -56 74 251 0
-11 -56 74 -251 0
-37 19 -30 252 0
-37 19 -30 -252 0
52 75 -11 253 0
52 75 -11 -253 0
-74 21 -39 254 0
-74 21 -39 -254 0
4 -69 68 255 0
4 -69 68 -255 0
-74 52 -75 256 0
-74 52 -75 -256 0
-18 -63 59 257 0
-18 -63 59 -257 0
-41 -18 2 258 0
-41 -18 2 -258 0
42 40 -31 259 0
42 40 -31 -259 0
-48 -35 60 260 0
-48 -35 60 -260 0
-59 -50 3 261 0
-59 -50 3 -261 0
22 64 -16 262 0
22 64 -16 -262 0
7 -2 -75 263 0
7 -2 -75 -263 0
-18 20 5 264 0
-18 20 5 -264 0
39 73 -69 265 0
39 73 -69 -265 0
49 -21 52 266 0
49 -21 52 -266 0
25 56 20 267 0
25 56 20 -267 0
-37 -17 -1 268 0
-37 -17 -1 -268 0
62 -15 45 269 0
62 -15 45 -269 0
-74 -37 -22 270 0
-74 -37 -22 -270 0
20 -64 -47 271 0
20 -64 -47 -271 0
46 -36 -71 272 0
46 -36 -71 -272 0
37 -68 -74 273 0
37 -68 -74 -273 0
68 -2 9 274 0
68 -2 9 -274 0
-27 4 -12 275 0
-27 4 -12 -275 0
-44 22 -16 276 0
-44 22 -16 -276 0
14 59 -63 277 0
14 59 -63 -277 0
-52 27 58 278 0
-52 27 58 -278 0
50 -16 -31 279 0
50 -16 -31 -279 0
29 -61 56 280 0
29 -61 56 -280 0
-46 -9 4 281 0
-46 -9 4 -281 0
-52 65 -11 282 0
-52 65 -11 -282 0
24 55 71 283 0
24 55 71 -283 0
-29 11 26 284 0
-29 11 26 -284 0
29 -41 -68 285 0
29 -41 -68 -285 0
-45 -13 -63 286 0
-45 -13 -63 -286 0
1 51 28 287 0
1 51 28 -287 0
-55 -39 -11 288 0
-55 -39 -11 -288 0
60 -74 -59 289 0
60 -74 -59 -289 0
17 13 37 290 0
17 13 37 -290 0
-64 -67 18 291 0
-64 -67 18 -291 0
-15 -40 66 292 0
-15 -40 66 -292 0
74 29 44 293 0
74 29 44 -293 0
-57 -64 -13 294 0
-57 -64 -13 -294 0
-36 15 9 295 0
-36 15 9 -295 0
2 -13 -21 296 0
2 -13 -21 -296 0
35 -4 -25 297 0
35 -4 -25 -297 0
-31 -45 28 298 0
-31 -45 28 -298 0
12 36 20 299 0
12 36 20 -299 0
20 37 -33 300 0
20 37 -33 -300 0
58 -36 -70 301 0
58 -36 -70 -301 0
64 -14 62 302 0
64 -14 62 -302 0
-12 -69 -2 303 0
-12 -69 -2 -303 0
71 4 17 304 0
71 4 17 -304 0
-34 48 55 305 0
-34 48 55 -305 0
-49 58 44 306 0
-49 58 44 -306 0
-50 42 -13 307 0
-50 42 -13 -307 0
-74 47 38 308 0
-74 47 38 -308 0
70 -44 49 309 0
70 -44 49 -309 0
-71 -41 -75 310 0
-71 -41 -75 -310 0
-54 -28 -16 311 0
-54 -28 -16 -311 0
14 23 55 312 0
14 23 55 -312 0
74 28 72 313 0
74 28 72 -313 0
-69 13 -68 314 0
-69 13 -68 -314 0
-51 31 -20 315 0
-51 31 -20 -315 0
-23 -5 26 316 0
-23 -5 26 -316 0
-6 -58 -30 317 0
-6 -58 -30 -317 0
11 56 10 318 0
11 56 10 -318 0
31 -11 41 319 0
31 -11 41 -319 0
2 29 -32 320 0
2 29 -32 -320 0
-20 -26 64 321 0
-20 -26 64 -321 0
53 -69 -15 322 0
53 -69 -15 -322 0
-64 -65 -53 323 0
-64 -65 -53 -323 0
-26 -27 -4 324 0
-26 -27 -4 -324 0
68 -51 11 325 0
68 -51 11 -325 0
-8 -18 39 326 0
-8 -18 39 -326 0
-29 -40 22 327 0
-29 -40 22 -327 0
40 35 -66 328 0
40 35 -66 -328 0
12 -59 -13 329 0
12 -59 -13 -329 0
73 -43 38 330 0
73 -43 38 -330 0
-22 -1 -52 331 0
-22 -1 -52 -331 0
13 -25 -4 332 0
13 -25 -4 -332 0
35 -33 -10 333 0
35 -33 -10 -333 0
11 61 27 334 0
11 61 27 -334 0
-10 73 45 335 0
-10 73 45 -335 0
-7 27 38 336 0
-7 27 38 -336 0
23 -24 -59 337 0
23 -24 -59 -337 0
2 -17 -8 338 0
2 -17 -8 -338 0
55 53 -43 339 0
55 53 -43 -339 0
-8 -11 -41 340 0
-8 -11 -41 -340 0
-15 -65 72 341 0
-15 -65 72 -341 0
-11 71 32 342 0
-11 71 32 -342 0
-44 24 -31 343 0
-44 24 -31 -343 0
33 14 -50 344 0
33 14 -50 -344 0
43 28 -61 345 0
43 28 -61 -345 0
-54 -19 33 346 0
-54 -19 33 -346 0
58 -6 1 347 0
58 -6 1 -347 0
-28 43 46 348 0
-28 43 46 -348 0
55 -52 -20 349 0
55 -52 -20 -349 0
-4 20 -67 350 0
-4 20 -67 -350 0
-32 -6 15 351 0
-32 -6 15 -351 0
-70 -39 16 352 0
-70 -39 16 -352 0
-18 -5 -57 353 0
-18 -5 -57 -353 0
70 -43 52 354 0
70 -43 52 -354 0
-54 -74 -47 355 0
-54 -74 -47 -355 0
-42 20 -5 356 0
-42 20 -5 -356 0
66 -5 24 357 0
66 -5 24 -357 0
21 18 -7 358 0
21 18 -7 -358 0
2 36 53 359 0
2 36 53 -359 0
-70 31 -52 360 0
-70 31 -52 -360 0
-6 -38 -56 361 0
-6 -38 -56 -361 0
-53 -51 -65 362 0
-53 -51 -65 -362 0
4 -68 -73 363 0
4 -68 -73 -363 0
-6 1 -28 364 0
-6 1 -28 -364 0
-64 -11 15 365 0
-64 -11 15 -365 0
-16 -56 -70 366 0
-16 -56 -70 -366 0
37 20 -17 367 0
37 20 -17 -367 0
19 7 -60 368 0
19 7 -60 -368 0
8 18 60 369 0
8 18 60 -369 0
20 64 -11 370 0
20 64 -11 -370 0
-67 -44 41 371 0
-67 -44 41 -371 0
27 2 44 372 0
27 2 44 -372 0
-47 -36 21 373 0
-47 -36 21 -373 0
71 -64 -65 374 0
71 -64 -65 -374 0
51 53 -2 375 0
51 53 -2 -375 0
-1 50 27 376 0
-1 50 27 -376 0
-14 -16 60 377 0
-14 -16 60 -377 0
-18 17 49 378 0
-18 17 49 -378 0
44 1 -10 379 0
44 1 -10 -379 0
24 8 -52 380 0
24 8 -52 -380 0
-12 18 -33 381 0
-12 18 -33 -381 0
-73 -17 63 382 0
-73 -17 63 -382 0
-71 -17 -49 383 0
-71 -17 -49 -383 0
-65 -23 54 384 0
-65 -23 54 -384 0
-72 5 17 385 0
-72 5 17 -385 0
-31 41 -51 386 0
-31 41 -51 -386 0
34 -2 -71 387 0
34 -2 -71 -387 0
53 54 -11 388 0
53 54 -11 -388 0
-4 12 -13 389 0
-4 12 -13 -389 0
67 -7 73 390 0
67 -7 73 -390 0
42 -10 -68 391 0
42 -10 -68 -391 0
-71 -31 -74 392 0
-71 -31 -74 -392 0
-60 -29 -36 393 0
-60 -29 -36 -393 0
-60 -59 69 394 0
-60 -59 69 -394 0
-65 -32 -11 395 0
-65 -32 -11 -395 0
15 7 -74 396 0
15 7 -74 -396 0
4 19 26 397 0
4 19 26 -397 0
59 -69 30 398 0
59 -69 30 -398 0
-1 -49 68 399 0
-1 -49 68 -399 0
74 36 66 400 0
74 36 66 -400 0
401 402 403 404 0
401 402 403 -404 0
401 402 -403 404 0
401 402 -403 -404 0
401 -402 403 404 0
401 -402 403 -404 0
401 -402 -403 404 0
401 -402 -403 -404 0
-401 402 403 404 0
-401 402 403 -404 0
-401 402 -403 404 0
-401 402 -403 -404 0
-401 -402 403 404 0
-401 -402 403 -404 0
-401 -402 -403 404 0
-401 -402 -403 -404 0
405 406 407 408 0
405 406 407 -408 0
405 406 -407 408 0
405 406 -407 -408 0
405 -406 407 408 0
405 -406 407 -408 0
405 -406 -407 408 0
405 -406 -407 -408 0
-405 406 407 408 0
-405 406 407 -408 0
-405 406 -407 408 0
-405 406 -407 -408 0
-405 -406 407 408 0
-405 -406 407 -408 0
-405 -406 -407 408 0
-405 -406 -407 -408 0
409 410 411 412 0
409 410 411 -412 0
409 410 -411 412 0
409 410 -411 -412 0
409 -410 411 412 0
409 -410 411 -412 0
409 -410 -411 412 0
409 -410 -411 -412 0
-409 410 411 412 0
-409 410 411 -412 0
-409 410 -411 412 0
-409 410 -411 -412 0
-409 -410 411 412 0
-409 -410 411 -412 0
-409 -410 -411 412 0
-409 -410 -411 -412 0
